# Solution for model r10_t9_m3_9
# Finished Task: 9 / 9
# Makespan: 524.0, Total Distance: 488.0, Total Time: 0.0526
# R O S F
0 0 14 0.0 0.0
1 1 18 0.0 0.0
2 2 11 0.0 0.0
3 3 15 0.0 0.0
4 4 -1 0.0 0.0
5 5 -1 0.0 0.0
6 6 -1 0.0 0.0
7 7 -1 0.0 0.0
8 8 -1 0.0 0.0
9 9 -1 0.0 0.0
10 1 -1 496.0 524.0
11 2 16 193.0 219.0
12 1 10 419.0 439.0
13 0 17 387.0 419.0
14 0 13 214.0 247.0
15 3 -1 88.0 112.0
16 2 -1 439.0 462.0
17 0 -1 462.0 496.0
18 1 12 154.0 193.0
